Reading model...
...model read.
creating competitive generators file...
...competitive generators recorded.
Loading data...
.. real-time data read.
Compiling instance...
...instance created.
Creating Offer Mitigation (model will solve as dispatch if TRUE)...
NOTE: storage offers will not be mitigated
...storage offer mitigation file created
Converting model to MPEC...
...converted
NOTE: initial MIP solve with only storage competitive to get feasible solution
Solving...

Welcome to IBM(R) ILOG(R) CPLEX(R) Interactive Optimizer 12.9.0.0
  with Simplex, Mixed Integer & Barrier Optimizers
5725-A06 5725-A29 5724-Y48 5724-Y49 5724-Y54 5724-Y55 5655-Y21
Copyright IBM Corp. 1988, 2019.  All Rights Reserved.

Type 'help' for a list of available commands.
Type 'help' followed by a command name for more
information on commands.

CPLEX> Logfile 'cplex.log' closed.
Logfile 'C:\Users\llavin\Desktop\test713\logs\tmpidj8n683.cplex.log' open.
CPLEX> New value for parallel optimization mode: -1
CPLEX> New value for mixed integer optimality gap tolerance: 0.01
CPLEX> New value for deterministic time limit in ticks: 100000
CPLEX> Problem 'C:\Users\llavin\Desktop\test713\logs\tmpw7105pq_.pyomo.lp' read.
Read time = 0.55 sec. (27.51 ticks)
CPLEX> Problem name         : C:\Users\llavin\Desktop\test713\logs\tmpw7105pq_.pyomo.lp
Objective sense      : Maximize
Variables            :  106816  [Nneg: 1,  Box: 43669,  Free: 8832,
                                 Binary: 54314]
Objective nonzeros   :   17329
Linear constraints   :  244875  [Less: 82047,  Greater: 117460,  Equal: 45368]
  Nonzeros           :  576741
  RHS nonzeros       :  133567

Variables            : Min LB: -5000.000        Max UB: 1000000.       
Objective nonzeros   : Min   : 2.333333         Max   : 834.3000       
Linear constraints   :
  Nonzeros           : Min   : 0.9219544        Max   : 1000000.       
  RHS nonzeros       : Min   : 1.000000         Max   : 1000000.       
CPLEX> CPXPARAM_Parallel                                -1
CPXPARAM_DetTimeLimit                            100000
CPXPARAM_MIP_Tolerances_MIPGap                   0.01
Tried aggregator 3 times.
MIP Presolve eliminated 178799 rows and 41649 columns.
MIP Presolve added 6034 rows and 0 columns.
MIP Presolve modified 48437 coefficients.
Aggregator did 25585 substitutions.
Reduced MIP has 46525 rows, 37950 columns, and 139017 nonzeros.
Reduced MIP has 14986 binaries, 0 generals, 0 SOSs, and 0 indicators.
Presolve time = 0.58 sec. (336.07 ticks)
Probing fixed 874 vars, tightened 8645 bounds.
Probing time = 0.36 sec. (14.38 ticks)
Tried aggregator 2 times.
MIP Presolve eliminated 1946 rows and 1752 columns.
MIP Presolve modified 5580 coefficients.
Aggregator did 50 substitutions.
Reduced MIP has 44529 rows, 36148 columns, and 133226 nonzeros.
Reduced MIP has 14110 binaries, 0 generals, 0 SOSs, and 0 indicators.
Presolve time = 0.20 sec. (135.87 ticks)
Probing fixed 0 vars, tightened 442 bounds.
Probing time = 0.64 sec. (26.22 ticks)
Clique table members: 102811.
MIP emphasis: balance optimality and feasibility.
MIP search method: dynamic search.
Parallel mode: opportunistic, using up to 32 threads.
Root relaxation solution time = 0.94 sec. (1334.93 ticks)

        Nodes                                         Cuts/
   Node  Left     Objective  IInf  Best Integer    Best Bound    ItCnt     Gap

      0     0        0.0000    89                      0.0000     8828         
*     0+    0                            0.0000        0.0000             0.00%
      0     0        cutoff              0.0000        0.0000     8828    0.00%
Elapsed time = 3.45 sec. (2368.38 ticks, tree = 0.01 MB, solutions = 1)

Root node processing (before b&c):
  Real time             =    3.48 sec. (2372.18 ticks)
Parallel b&c, 32 threads:
  Real time             =    0.00 sec. (0.00 ticks)
  Sync time (average)   =    0.00 sec.
  Wait time (average)   =    0.00 sec.
                          ------------
Total (root+branch&cut) =    3.48 sec. (2372.18 ticks)

Solution pool: 1 solution saved.

MIP - Integer optimal solution:  Objective =  0.0000000000e+00
Solution time =    3.53 sec.  Iterations = 8828  Nodes = 0
Deterministic time = 2372.49 ticks  (671.71 ticks/sec)

CPLEX> Incumbent solution written to file 'C:\Users\llavin\Desktop\test713\logs\tmp8_lg0sq5.cplex.sol'.
CPLEX> NOTE: no warmstart specified for MIP iteration, default behavior is true
NOTE: resolving with all competitive generators using storage-only solution to warmstart
Solving...

Welcome to IBM(R) ILOG(R) CPLEX(R) Interactive Optimizer 12.9.0.0
  with Simplex, Mixed Integer & Barrier Optimizers
5725-A06 5725-A29 5724-Y48 5724-Y49 5724-Y54 5724-Y55 5655-Y21
Copyright IBM Corp. 1988, 2019.  All Rights Reserved.

Type 'help' for a list of available commands.
Type 'help' followed by a command name for more
information on commands.

CPLEX> Logfile 'cplex.log' closed.
Logfile 'C:\Users\llavin\Desktop\test713\logs\tmp5q6557gb.cplex.log' open.
CPLEX> New value for parallel optimization mode: -1
CPLEX> New value for mixed integer optimality gap tolerance: 0.01
CPLEX> New value for deterministic time limit in ticks: 100000
CPLEX> Problem 'C:\Users\llavin\Desktop\test713\logs\tmpof_rnyj6.pyomo.lp' read.
Read time = 0.50 sec. (27.55 ticks)
CPLEX> MIP start file 'C:\Users\llavin\Desktop\test713\logs\tmpkzxqhbc2.cplex.mst' read.
CPLEX> Problem name         : C:\Users\llavin\Desktop\test713\logs\tmpof_rnyj6.pyomo.lp
Objective sense      : Maximize
Variables            :  108256  [Nneg: 1,  Box: 45109,  Free: 8832,
                                 Binary: 54314]
Objective nonzeros   :   18721
Linear constraints   :  244875  [Less: 82047,  Greater: 117460,  Equal: 45368]
  Nonzeros           :  576741
  RHS nonzeros       :  133567

Variables            : Min LB: -5000.000        Max UB: 1000000.       
Objective nonzeros   : Min   : 2.333333         Max   : 787.8000       
Linear constraints   :
  Nonzeros           : Min   : 0.9219544        Max   : 1000000.       
  RHS nonzeros       : Min   : 1.000000         Max   : 1000000.       
CPLEX> CPXPARAM_Parallel                                -1
CPXPARAM_DetTimeLimit                            100000
CPXPARAM_MIP_Tolerances_MIPGap                   0.01
1 of 1 MIP starts provided solutions.
MIP start 'm1' defined initial solution with objective 0.0000.
Tried aggregator 3 times.
MIP Presolve eliminated 178799 rows and 43089 columns.
MIP Presolve added 6034 rows and 0 columns.
MIP Presolve modified 48437 coefficients.
Aggregator did 25585 substitutions.
Reduced MIP has 46525 rows, 37950 columns, and 139017 nonzeros.
Reduced MIP has 14986 binaries, 0 generals, 0 SOSs, and 0 indicators.
Presolve time = 0.59 sec. (336.77 ticks)
Probing fixed 874 vars, tightened 8645 bounds.
Probing time = 0.36 sec. (14.38 ticks)
Tried aggregator 2 times.
MIP Presolve eliminated 1946 rows and 1752 columns.
MIP Presolve modified 5580 coefficients.
Aggregator did 50 substitutions.
Reduced MIP has 44529 rows, 36148 columns, and 133226 nonzeros.
Reduced MIP has 14110 binaries, 0 generals, 0 SOSs, and 0 indicators.
Presolve time = 0.22 sec. (135.86 ticks)
Probing fixed 0 vars, tightened 434 bounds.
Probing time = 0.66 sec. (22.49 ticks)
Clique table members: 102811.
MIP emphasis: balance optimality and feasibility.
MIP search method: dynamic search.
Parallel mode: opportunistic, using up to 32 threads.
Root relaxation solution time = 1.05 sec. (1464.78 ticks)

        Nodes                                         Cuts/
   Node  Left     Objective  IInf  Best Integer    Best Bound    ItCnt     Gap

*     0+    0                            0.0000   1.13224e+08              --- 
      0     0   154491.2926   376        0.0000   154491.2926     8908     --- 
      0     0   153361.8740   466        0.0000     Cuts: 789     9466     --- 
      0     0   153361.8740   422        0.0000     Cuts: 501     9676     --- 
      0     0   153361.8740   403        0.0000     Cuts: 175     9783     --- 
      0     0   153361.8740   400        0.0000     Cuts: 108     9833     --- 
      0     0   153361.8740   128        0.0000      Cuts: 24     9842     --- 
      0     0   153361.8740   135        0.0000      Cuts: 73     9902     --- 
      0    10    infeasible              0.0000  Impl Bds: 40    10561     --- 
Elapsed time = 10.55 sec. (6356.62 ticks, tree = 0.02 MB, solutions = 1)
    148    82   111078.0310    73        0.0000   136464.3786    16427     --- 
    412    57    99975.6219    62        0.0000   136464.3786    15471     --- 
    738   204        cutoff              0.0000   136464.3786    17986     --- 
   1074   296    79717.0149    41        0.0000   136464.3786    18948     --- 
   1369   509    75864.7376    37        0.0000   136464.3786    21000     --- 
   1629   844    89348.3808    56        0.0000   136464.3786    24234     --- 
   1918   779     5576.0745    17        0.0000   136464.3786    23780     --- 
   2239  1040    87176.7955    71        0.0000   136464.3786    26665     --- 
   2592  1086    43425.1597    24        0.0000   136464.3786    27348     --- 
   3860  1533        cutoff              0.0000   126721.0868    40207     --- 
Elapsed time = 31.22 sec. (9465.13 ticks, tree = 17.41 MB, solutions = 3)
   5441  2161    48044.3325    63        0.0000   114162.0318    47810     --- 
   7035  2933    54310.2264    48        0.0000   102353.7641    64956     --- 
   8159  3415        cutoff              0.0000   101870.6782    85878     --- 
   8233  3555        cutoff              0.0000    54056.6597   108032     --- 
   8257   150    26065.7528    20        0.0000     7567.9907   108170     --- 

Flow cuts applied:  31
Mixed integer rounding cuts applied:  7
Lift and project cuts applied:  1
Gomory fractional cuts applied:  17

Root node processing (before b&c):
  Real time             =    8.47 sec. (6340.12 ticks)
Parallel b&c, 32 threads:
  Real time             =   53.44 sec. (15124.38 ticks)
  Sync time (average)   =    4.55 sec.
  Wait time (average)   =    0.31 sec.
                          ------------
Total (root+branch&cut) =   61.91 sec. (21464.50 ticks)

Solution pool: 3 solutions saved.

MIP - Integer optimal, tolerance (0.01/1e-06):  Objective =  6.4940593063e-10
Current MIP best bound =  4.7910725698e-07 (gap = 4.78458e-07, 6.4e+04%)
Solution time =   61.94 sec.  Iterations = 108316  Nodes = 8265 (108)
Deterministic time = 21464.81 ticks  (346.55 ticks/sec)

CPLEX> Incumbent solution written to file 'C:\Users\llavin\Desktop\test713\logs\tmpblkk583l.cplex.sol'.
CPLEX> Exporting results... 
